17	4	3
38	40	30	24	34	28	16	
0	0	0	0	0	9	1	6	3	1	2	3	2	3	4
1	9	5	1	9	5	6	2	9	3	4	3	5	10	17
7	3	7	10	8	5	3	10	3	2	8	3	6	9	11
1	7	4	10	4	8	5	3	5	2	10	3	7	11	17
7	10	6	3	4	4	7	4	10	8	8	1	17
175	1	7	3	3	2	6	8	8	9	8	3	8	15	17
25	2	10	9	1	10	3	4	1	1	6	1	17
175	10	9	10	8	5	5	8	4	7	10	2	17	17
100	4	10	7	7	2	5	4	4	9	5	1	17
100	4	4	9	9	4	3	2	7	3	9	2	13	17
50	4	9	5	7	5	5	5	2	2	3	2	12	17
25	8	2	4	9	10	1	6	4	2	7	1	17
1	7	2	6	6	9	6	1	6	10	8	2	14	17
6	9	2	10	3	5	1	2	9	5	1	1	16
1	2	10	6	8	3	8	4	4	5	6	2	17	17
7	1	10	2	3	3	9	10	8	1	2	1	17
0	0	0	0	0	10	1	3	6	4	4	0
